c CNF encoding of the claim that a graph contains an induced
c copy of a subgraph.
c Generated with `cnfgen`
c (C) 2012-2019 Massimo Lauria <massimo.lauria@uniroma1.it>
c https://massimolauria.net/cnfgen
c
c COMMAND LINE: cnfgen -v -o kclique3.cnf kclique 2 --gnm 4 5
c
p cnf 8 25
1 2 3 4 0
5 6 7 8 0
-1 -5 0
-2 -6 0
-3 -7 0
-4 -8 0
-1 -2 0
-1 -3 0
-1 -4 0
-2 -3 0
-2 -4 0
-3 -4 0
-5 -6 0
-5 -7 0
-5 -8 0
-6 -7 0
-6 -8 0
-7 -8 0
-2 -5 0
-3 -5 0
-3 -6 0
-4 -5 0
-4 -6 0
-4 -7 0
-2 -7 0
